c
c This is glucose 2.1 --  based on MiniSAT (Many thanks to MiniSAT team)
c
c WARNING: for repeatability, setting FPU to use double precision
c ========================================[ Problem Statistics ]===========================================
c |                                                                                                       |
c |  Number of variables:         70279                                                                   |
c |  Number of clauses:          136975                                                                   |
c |  Parse time:                   0.07 s                                                                 |
c |                                                                                                       |
c ========================================[ MAGIC CONSTANTS ]==============================================
c | Constants are supposed to work well together :-)                                                      |
c | however, if you find better choices, please let us known...                                           |
c |-------------------------------------------------------------------------------------------------------|
c |                                |                                |                                     |
c | - Restarts:                    | - Reduce Clause DB:            | - Minimize Asserting:               |
c |   * LBD Queue    :     50      |   * First     :   4000         |    * size <  30                     |
c |   * Trail  Queue :   5000      |   * Inc       :    300         |    * lbd  <   6                     |
c |   * K            :   0.80      |   * Special   :   1000         |                                     |
c |   * R            :   1.40      |   * Protected :  (lbd)< 30     |                                     |
c |                                |                                |                                     |
c ==================================[ Search Statistics (every  10000 conflicts) ]=========================
c |                                                                                                       |
c |          RESTARTS           |          ORIGINAL         |              LEARNT              | Progress |
c |       NB   Blocked  Avg Cfc |    Vars  Clauses Literals |   Red   Learnts    LBD2  Removed |          |
c =========================================================================================================
c |       51         0      196 |   34234   131329   296922 |     1     8000       91     1997 | 51.288 % |
c |       63         0      317 |   34234   131329   296922 |     3     6955      100    13042 | 51.288 % |
c |      109         0      275 |   34182   131289   296802 |     3    16942      132    13042 | 51.362 % |
c |      159         0      251 |   34159   131270   296745 |     4    17669      150    22311 | 51.395 % |
c |      175         0      285 |   34148   131258   296709 |     5    15842      164    34137 | 51.411 % |
c |      186         0      322 |   34114   131229   296622 |     5    25836      177    34137 | 51.459 % |
c |      193         0      362 |   34103   131222   296601 |     6    21419      183    48551 | 51.475 % |
c |      207         0      386 |   34103   131222   296601 |     6    31419      190    48551 | 51.475 % |
c |      227         0      396 |   34084   131205   296550 |     7    24412      203    65554 | 51.502 % |
c |      236         0      423 |   34080   131200   296535 |     7    34411      208    65554 | 51.508 % |
c |      237         0      464 |   32912   129660   291735 |     8    19873      220    85149 | 53.170 % |
c |      244         0      491 |   31896   129034   289785 |     8    20143      242    85149 | 54.615 % |
c =========================================================================================================
c restarts              : 244 (505 conflicts in avg)
c blocked restarts      : 0 (multiple: 0) 
c last block at restart : 0
c nb ReduceDB           : 8
c nb removed Clauses    : 85149
c nb learnts DL2        : 298
c nb learnts size 2     : 204
c nb learnts size 1     : 40
c conflicts             : 123367         (5028 /sec)
c decisions             : 183723         (0.00 % random) (7487 /sec)
c propagations          : 91423709       (3725872 /sec)
c conflict literals     : 4905417        (60.37 % deleted)
c nb reduced Clauses    : 104
c CPU time              : 24.5375 s
s UNSATISFIABLE
